c Random 2 Leveled Graph
c 4 Rows, 2 columns, capacities in range [0, 25]
p max 10 20
n 1 s
n 10 t
a 1 5 75
a 1 4 75
a 1 3 75
a 1 2 75
a 2 7 11
a 2 8 19
a 2 9 16
a 3 7 3
a 3 6 13
a 3 8 22
a 4 6 12
a 4 9 23
a 4 8 2
a 5 7 13
a 5 6 6
a 5 9 8
a 6 10 75
a 7 10 75
a 8 10 75
a 9 10 75
